\Problem name: ClpDefaultName

Minimize
OBJROW: 1.00000 cv_0
Subject To
R_4_0:  1.00000 cv_1 + 1.00000 cv_2 + 1.00000 cv_3 + 1.00000 cv_4 + 1.00000 cv_5 + 1.00000 cv_6 + 1.00000 cv_7 + 1.00000 cv_8 + 1.00000 cv_9 + 1.00000 cv_10
 + 1.00000 cv_11 + 1.00000 cv_12 + 1.00000 cv_13 + 1.00000 cv_14 + 1.00000 cv_15 + 1.00000 cv_16 + 1.00000 cv_17 + 1.00000 cv_18 + 1.00000 cv_19 + 1.00000 cv_20
 + 1.00000 cv_21 + 1.00000 cv_22 + 1.00000 cv_23 + 1.00000 cv_24 + 1.00000 cv_25 + 1.00000 cv_26 + 1.00000 cv_27 + 1.00000 cv_28 + 1.00000 cv_29 + 1.00000 cv_30
 + 1.00000 cv_31 + 1.00000 cv_32 + 1.00000 cv_33 + 1.00000 cv_34 + 1.00000 cv_35 + 1.00000 cv_36 + 1.00000 cv_37 + 1.00000 cv_38 + 1.00000 cv_39 + 1.00000 cv_40
 + 1.00000 cv_41 + 1.00000 cv_42 + 1.00000 cv_43 + 1.00000 cv_44 + 1.00000 cv_45 + 1.00000 cv_46 + 1.00000 cv_47 + 1.00000 cv_48 + 1.00000 cv_49 + 1.00000 cv_50
 + 1.00000 cv_51 + 1.00000 cv_52 + 1.00000 cv_53 + 1.00000 cv_54 + 1.00000 cv_55 + 1.00000 cv_56 + 1.00000 cv_57 + 1.00000 cv_58 + 1.00000 cv_59 + 1.00000 cv_60
 + 1.00000 cv_61 + 1.00000 cv_62 + 1.00000 cv_63 + 1.00000 cv_64 + 1.00000 cv_65 + 1.00000 cv_66 + 1.00000 cv_67 + 1.00000 cv_68 + 1.00000 cv_69 + 1.00000 cv_70
 + 1.00000 cv_71 + 1.00000 cv_72 + 1.00000 cv_73 + 1.00000 cv_74 + 1.00000 cv_75 + 1.00000 cv_76 + 1.00000 cv_77 + 1.00000 cv_78 + 1.00000 cv_79 + 1.00000 cv_80
 + 1.00000 cv_81 + 1.00000 cv_82 + 1.00000 cv_83 + 1.00000 cv_84 + 1.00000 cv_85 + 1.00000 cv_86 + 1.00000 cv_87 + 1.00000 cv_88 + 1.00000 cv_89 + 1.00000 cv_90
 + 1.00000 cv_91 + 1.00000 cv_92 + 1.00000 cv_93 + 1.00000 cv_94 + 1.00000 cv_95 + 1.00000 cv_96 + 1.00000 cv_97 + 1.00000 cv_98 + 1.00000 cv_99 + 1.00000 cv_100
 + 1.00000 cv_101 + 1.00000 cv_102 + 1.00000 cv_103 + 1.00000 cv_104 + 1.00000 cv_105 + 1.00000 cv_106 + 1.00000 cv_107 + 1.00000 cv_108 + 1.00000 cv_109 + 1.00000 cv_110
 + 1.00000 cv_111 + 1.00000 cv_112 + 1.00000 cv_113 + 1.00000 cv_114 + 1.00000 cv_115 + 1.00000 cv_116 + 1.00000 cv_117 + 1.00000 cv_118 + 1.00000 cv_119 + 1.00000 cv_120
 + 1.00000 cv_121 + 1.00000 cv_122 + 1.00000 cv_123 + 1.00000 cv_124 + 1.00000 cv_125 + 1.00000 cv_126 + 1.00000 cv_127 + 1.00000 cv_128 + 1.00000 cv_129 + 1.00000 cv_130
 + 1.00000 cv_131 + 1.00000 cv_132 + 1.00000 cv_133 + 1.00000 cv_134 + 1.00000 cv_135 + 1.00000 cv_136 + 1.00000 cv_137 + 1.00000 cv_138 + 1.00000 cv_139 + 1.00000 cv_140
 + 1.00000 cv_141 + 1.00000 cv_142 + 1.00000 cv_143 + 1.00000 cv_144 + 1.00000 cv_145 + 1.00000 cv_146 + 1.00000 cv_147 + 1.00000 cv_148 + 1.00000 cv_149 + 1.00000 cv_150
 <= 1.00000
R_4_0_low: 1.00000 cv_1 + 1.00000 cv_2 + 1.00000 cv_3 + 1.00000 cv_4 + 1.00000 cv_5 + 1.00000 cv_6 + 1.00000 cv_7 + 1.00000 cv_8 + 1.00000 cv_9 + 1.00000 cv_10
 + 1.00000 cv_11 + 1.00000 cv_12 + 1.00000 cv_13 + 1.00000 cv_14 + 1.00000 cv_15 + 1.00000 cv_16 + 1.00000 cv_17 + 1.00000 cv_18 + 1.00000 cv_19 + 1.00000 cv_20
 + 1.00000 cv_21 + 1.00000 cv_22 + 1.00000 cv_23 + 1.00000 cv_24 + 1.00000 cv_25 + 1.00000 cv_26 + 1.00000 cv_27 + 1.00000 cv_28 + 1.00000 cv_29 + 1.00000 cv_30
 + 1.00000 cv_31 + 1.00000 cv_32 + 1.00000 cv_33 + 1.00000 cv_34 + 1.00000 cv_35 + 1.00000 cv_36 + 1.00000 cv_37 + 1.00000 cv_38 + 1.00000 cv_39 + 1.00000 cv_40
 + 1.00000 cv_41 + 1.00000 cv_42 + 1.00000 cv_43 + 1.00000 cv_44 + 1.00000 cv_45 + 1.00000 cv_46 + 1.00000 cv_47 + 1.00000 cv_48 + 1.00000 cv_49 + 1.00000 cv_50
 + 1.00000 cv_51 + 1.00000 cv_52 + 1.00000 cv_53 + 1.00000 cv_54 + 1.00000 cv_55 + 1.00000 cv_56 + 1.00000 cv_57 + 1.00000 cv_58 + 1.00000 cv_59 + 1.00000 cv_60
 + 1.00000 cv_61 + 1.00000 cv_62 + 1.00000 cv_63 + 1.00000 cv_64 + 1.00000 cv_65 + 1.00000 cv_66 + 1.00000 cv_67 + 1.00000 cv_68 + 1.00000 cv_69 + 1.00000 cv_70
 + 1.00000 cv_71 + 1.00000 cv_72 + 1.00000 cv_73 + 1.00000 cv_74 + 1.00000 cv_75 + 1.00000 cv_76 + 1.00000 cv_77 + 1.00000 cv_78 + 1.00000 cv_79 + 1.00000 cv_80
 + 1.00000 cv_81 + 1.00000 cv_82 + 1.00000 cv_83 + 1.00000 cv_84 + 1.00000 cv_85 + 1.00000 cv_86 + 1.00000 cv_87 + 1.00000 cv_88 + 1.00000 cv_89 + 1.00000 cv_90
 + 1.00000 cv_91 + 1.00000 cv_92 + 1.00000 cv_93 + 1.00000 cv_94 + 1.00000 cv_95 + 1.00000 cv_96 + 1.00000 cv_97 + 1.00000 cv_98 + 1.00000 cv_99 + 1.00000 cv_100
 + 1.00000 cv_101 + 1.00000 cv_102 + 1.00000 cv_103 + 1.00000 cv_104 + 1.00000 cv_105 + 1.00000 cv_106 + 1.00000 cv_107 + 1.00000 cv_108 + 1.00000 cv_109 + 1.00000 cv_110
 + 1.00000 cv_111 + 1.00000 cv_112 + 1.00000 cv_113 + 1.00000 cv_114 + 1.00000 cv_115 + 1.00000 cv_116 + 1.00000 cv_117 + 1.00000 cv_118 + 1.00000 cv_119 + 1.00000 cv_120
 + 1.00000 cv_121 + 1.00000 cv_122 + 1.00000 cv_123 + 1.00000 cv_124 + 1.00000 cv_125 + 1.00000 cv_126 + 1.00000 cv_127 + 1.00000 cv_128 + 1.00000 cv_129 + 1.00000 cv_130
 + 1.00000 cv_131 + 1.00000 cv_132 + 1.00000 cv_133 + 1.00000 cv_134 + 1.00000 cv_135 + 1.00000 cv_136 + 1.00000 cv_137 + 1.00000 cv_138 + 1.00000 cv_139 + 1.00000 cv_140
 + 1.00000 cv_141 + 1.00000 cv_142 + 1.00000 cv_143 + 1.00000 cv_144 + 1.00000 cv_145 + 1.00000 cv_146 + 1.00000 cv_147 + 1.00000 cv_148 + 1.00000 cv_149 + 1.00000 cv_150
 >= 1.00000
R_4_1:  1.00000 cv_151 + 0.50000 cv_303 <= 0.50000
R_4_1_low: 1.00000 cv_151 + 0.50000 cv_303 >= 0.50000
R_4_2:  -0.05288 cv_1 + 1.00000 cv_152 <= -0.00000
R_4_2_low: -0.05288 cv_1 + 1.00000 cv_152 >= -0.00000
R_4_3:  -0.07478 cv_2 + 1.00000 cv_153 <= -0.00000
R_4_3_low: -0.07478 cv_2 + 1.00000 cv_153 >= -0.00000
R_4_4:  -0.09159 cv_3 + 1.00000 cv_154 <= -0.00000
R_4_4_low: -0.09159 cv_3 + 1.00000 cv_154 >= -0.00000
R_4_5:  -0.10576 cv_4 + 1.00000 cv_155 <= -0.00000
R_4_5_low: -0.10576 cv_4 + 1.00000 cv_155 >= -0.00000
R_4_6:  -0.11824 cv_5 + 1.00000 cv_156 <= -0.00000
R_4_6_low: -0.11824 cv_5 + 1.00000 cv_156 >= -0.00000
R_4_7:  -0.12953 cv_6 + 1.00000 cv_157 <= -0.00000
R_4_7_low: -0.12953 cv_6 + 1.00000 cv_157 >= -0.00000
R_4_8:  -0.13991 cv_7 + 1.00000 cv_158 <= -0.00000
R_4_8_low: -0.13991 cv_7 + 1.00000 cv_158 >= -0.00000
R_4_9:  -0.14957 cv_8 + 1.00000 cv_159 <= -0.00000
R_4_9_low: -0.14957 cv_8 + 1.00000 cv_159 >= -0.00000
R_4_10:  -0.15864 cv_9 + 1.00000 cv_160 <= -0.00000
R_4_10_low: -0.15864 cv_9 + 1.00000 cv_160 >= -0.00000
R_4_11:  -0.16722 cv_10 + 1.00000 cv_161 <= -0.00000
R_4_11_low: -0.16722 cv_10 + 1.00000 cv_161 >= -0.00000
R_4_12:  -0.17538 cv_11 + 1.00000 cv_162 <= -0.00000
R_4_12_low: -0.17538 cv_11 + 1.00000 cv_162 >= -0.00000
R_4_13:  -0.18318 cv_12 + 1.00000 cv_163 <= -0.00000
R_4_13_low: -0.18318 cv_12 + 1.00000 cv_163 >= -0.00000
R_4_14:  -0.19066 cv_13 + 1.00000 cv_164 <= -0.00000
R_4_14_low: -0.19066 cv_13 + 1.00000 cv_164 >= -0.00000
R_4_15:  -0.19786 cv_14 + 1.00000 cv_165 <= -0.00000
R_4_15_low: -0.19786 cv_14 + 1.00000 cv_165 >= -0.00000
R_4_16:  -0.20480 cv_15 + 1.00000 cv_166 <= -0.00000
R_4_16_low: -0.20480 cv_15 + 1.00000 cv_166 >= -0.00000
R_4_17:  -0.21152 cv_16 + 1.00000 cv_167 <= -0.00000
R_4_17_low: -0.21152 cv_16 + 1.00000 cv_167 >= -0.00000
R_4_18:  -0.21803 cv_17 + 1.00000 cv_168 <= -0.00000
R_4_18_low: -0.21803 cv_17 + 1.00000 cv_168 >= -0.00000
R_4_19:  -0.22435 cv_18 + 1.00000 cv_169 <= -0.00000
R_4_19_low: -0.22435 cv_18 + 1.00000 cv_169 >= -0.00000
R_4_20:  -0.23050 cv_19 + 1.00000 cv_170 <= -0.00000
R_4_20_low: -0.23050 cv_19 + 1.00000 cv_170 >= -0.00000
R_4_21:  -0.23649 cv_20 + 1.00000 cv_171 <= -0.00000
R_4_21_low: -0.23649 cv_20 + 1.00000 cv_171 >= -0.00000
R_4_22:  -0.24233 cv_21 + 1.00000 cv_172 <= -0.00000
R_4_22_low: -0.24233 cv_21 + 1.00000 cv_172 >= -0.00000
R_4_23:  -0.24803 cv_22 + 1.00000 cv_173 <= -0.00000
R_4_23_low: -0.24803 cv_22 + 1.00000 cv_173 >= -0.00000
R_4_24:  -0.25360 cv_23 + 1.00000 cv_174 <= -0.00000
R_4_24_low: -0.25360 cv_23 + 1.00000 cv_174 >= -0.00000
R_4_25:  -0.25906 cv_24 + 1.00000 cv_175 <= -0.00000
R_4_25_low: -0.25906 cv_24 + 1.00000 cv_175 >= -0.00000
R_4_26:  -0.26440 cv_25 + 1.00000 cv_176 <= -0.00000
R_4_26_low: -0.26440 cv_25 + 1.00000 cv_176 >= -0.00000
R_4_27:  -0.26964 cv_26 + 1.00000 cv_177 <= -0.00000
R_4_27_low: -0.26964 cv_26 + 1.00000 cv_177 >= -0.00000
R_4_28:  -0.27477 cv_27 + 1.00000 cv_178 <= -0.00000
R_4_28_low: -0.27477 cv_27 + 1.00000 cv_178 >= -0.00000
R_4_29:  -0.27981 cv_28 + 1.00000 cv_179 <= -0.00000
R_4_29_low: -0.27981 cv_28 + 1.00000 cv_179 >= -0.00000
R_4_30:  -0.28477 cv_29 + 1.00000 cv_180 <= -0.00000
R_4_30_low: -0.28477 cv_29 + 1.00000 cv_180 >= -0.00000
R_4_31:  -0.28964 cv_30 + 1.00000 cv_181 <= -0.00000
R_4_31_low: -0.28964 cv_30 + 1.00000 cv_181 >= -0.00000
R_4_32:  -0.29442 cv_31 + 1.00000 cv_182 <= -0.00000
R_4_32_low: -0.29442 cv_31 + 1.00000 cv_182 >= -0.00000
R_4_33:  -0.29913 cv_32 + 1.00000 cv_183 <= -0.00000
R_4_33_low: -0.29913 cv_32 + 1.00000 cv_183 >= -0.00000
R_4_34:  -0.30377 cv_33 + 1.00000 cv_184 <= -0.00000
R_4_34_low: -0.30377 cv_33 + 1.00000 cv_184 >= -0.00000
R_4_35:  -0.30834 cv_34 + 1.00000 cv_185 <= -0.00000
R_4_35_low: -0.30834 cv_34 + 1.00000 cv_185 >= -0.00000
R_4_36:  -0.31284 cv_35 + 1.00000 cv_186 <= -0.00000
R_4_36_low: -0.31284 cv_35 + 1.00000 cv_186 >= -0.00000
R_4_37:  -0.31728 cv_36 + 1.00000 cv_187 <= -0.00000
R_4_37_low: -0.31728 cv_36 + 1.00000 cv_187 >= -0.00000
R_4_38:  -0.32166 cv_37 + 1.00000 cv_188 <= -0.00000
R_4_38_low: -0.32166 cv_37 + 1.00000 cv_188 >= -0.00000
R_4_39:  -0.32597 cv_38 + 1.00000 cv_189 <= -0.00000
R_4_39_low: -0.32597 cv_38 + 1.00000 cv_189 >= -0.00000
R_4_40:  -0.33024 cv_39 + 1.00000 cv_190 <= -0.00000
R_4_40_low: -0.33024 cv_39 + 1.00000 cv_190 >= -0.00000
R_4_41:  -0.33444 cv_40 + 1.00000 cv_191 <= -0.00000
R_4_41_low: -0.33444 cv_40 + 1.00000 cv_191 >= -0.00000
R_4_42:  -0.33860 cv_41 + 1.00000 cv_192 <= -0.00000
R_4_42_low: -0.33860 cv_41 + 1.00000 cv_192 >= -0.00000
R_4_43:  -0.34270 cv_42 + 1.00000 cv_193 <= -0.00000
R_4_43_low: -0.34270 cv_42 + 1.00000 cv_193 >= -0.00000
R_4_44:  -0.34676 cv_43 + 1.00000 cv_194 <= -0.00000
R_4_44_low: -0.34676 cv_43 + 1.00000 cv_194 >= -0.00000
R_4_45:  -0.35077 cv_44 + 1.00000 cv_195 <= -0.00000
R_4_45_low: -0.35077 cv_44 + 1.00000 cv_195 >= -0.00000
R_4_46:  -0.35473 cv_45 + 1.00000 cv_196 <= -0.00000
R_4_46_low: -0.35473 cv_45 + 1.00000 cv_196 >= -0.00000
R_4_47:  -0.35865 cv_46 + 1.00000 cv_197 <= -0.00000
R_4_47_low: -0.35865 cv_46 + 1.00000 cv_197 >= -0.00000
R_4_48:  -0.36253 cv_47 + 1.00000 cv_198 <= -0.00000
R_4_48_low: -0.36253 cv_47 + 1.00000 cv_198 >= -0.00000
R_4_49:  -0.36636 cv_48 + 1.00000 cv_199 <= -0.00000
R_4_49_low: -0.36636 cv_48 + 1.00000 cv_199 >= -0.00000
R_4_50:  -0.37016 cv_49 + 1.00000 cv_200 <= -0.00000
R_4_50_low: -0.37016 cv_49 + 1.00000 cv_200 >= -0.00000
R_4_51:  -0.37392 cv_50 + 1.00000 cv_201 <= -0.00000
R_4_51_low: -0.37392 cv_50 + 1.00000 cv_201 >= -0.00000
R_4_52:  -0.37764 cv_51 + 1.00000 cv_202 <= -0.00000
R_4_52_low: -0.37764 cv_51 + 1.00000 cv_202 >= -0.00000
R_4_53:  -0.38132 cv_52 + 1.00000 cv_203 <= -0.00000
R_4_53_low: -0.38132 cv_52 + 1.00000 cv_203 >= -0.00000
R_4_54:  -0.38497 cv_53 + 1.00000 cv_204 <= -0.00000
R_4_54_low: -0.38497 cv_53 + 1.00000 cv_204 >= -0.00000
R_4_55:  -0.38859 cv_54 + 1.00000 cv_205 <= -0.00000
R_4_55_low: -0.38859 cv_54 + 1.00000 cv_205 >= -0.00000
R_4_56:  -0.39217 cv_55 + 1.00000 cv_206 <= -0.00000
R_4_56_low: -0.39217 cv_55 + 1.00000 cv_206 >= -0.00000
R_4_57:  -0.39572 cv_56 + 1.00000 cv_207 <= -0.00000
R_4_57_low: -0.39572 cv_56 + 1.00000 cv_207 >= -0.00000
R_4_58:  -0.39924 cv_57 + 1.00000 cv_208 <= -0.00000
R_4_58_low: -0.39924 cv_57 + 1.00000 cv_208 >= -0.00000
R_4_59:  -0.40272 cv_58 + 1.00000 cv_209 <= -0.00000
R_4_59_low: -0.40272 cv_58 + 1.00000 cv_209 >= -0.00000
R_4_60:  -0.40618 cv_59 + 1.00000 cv_210 <= -0.00000
R_4_60_low: -0.40618 cv_59 + 1.00000 cv_210 >= -0.00000
R_4_61:  -0.40961 cv_60 + 1.00000 cv_211 <= -0.00000
R_4_61_low: -0.40961 cv_60 + 1.00000 cv_211 >= -0.00000
R_4_62:  -0.41301 cv_61 + 1.00000 cv_212 <= -0.00000
R_4_62_low: -0.41301 cv_61 + 1.00000 cv_212 >= -0.00000
R_4_63:  -0.41638 cv_62 + 1.00000 cv_213 <= -0.00000
R_4_63_low: -0.41638 cv_62 + 1.00000 cv_213 >= -0.00000
R_4_64:  -0.41972 cv_63 + 1.00000 cv_214 <= -0.00000
R_4_64_low: -0.41972 cv_63 + 1.00000 cv_214 >= -0.00000
R_4_65:  -0.42304 cv_64 + 1.00000 cv_215 <= -0.00000
R_4_65_low: -0.42304 cv_64 + 1.00000 cv_215 >= -0.00000
R_4_66:  -0.42633 cv_65 + 1.00000 cv_216 <= -0.00000
R_4_66_low: -0.42633 cv_65 + 1.00000 cv_216 >= -0.00000
R_4_67:  -0.42960 cv_66 + 1.00000 cv_217 <= -0.00000
R_4_67_low: -0.42960 cv_66 + 1.00000 cv_217 >= -0.00000
R_4_68:  -0.43284 cv_67 + 1.00000 cv_218 <= -0.00000
R_4_68_low: -0.43284 cv_67 + 1.00000 cv_218 >= -0.00000
R_4_69:  -0.43606 cv_68 + 1.00000 cv_219 <= -0.00000
R_4_69_low: -0.43606 cv_68 + 1.00000 cv_219 >= -0.00000
R_4_70:  -0.43925 cv_69 + 1.00000 cv_220 <= -0.00000
R_4_70_low: -0.43925 cv_69 + 1.00000 cv_220 >= -0.00000
R_4_71:  -0.44243 cv_70 + 1.00000 cv_221 <= -0.00000
R_4_71_low: -0.44243 cv_70 + 1.00000 cv_221 >= -0.00000
R_4_72:  -0.44557 cv_71 + 1.00000 cv_222 <= -0.00000
R_4_72_low: -0.44557 cv_71 + 1.00000 cv_222 >= -0.00000
R_4_73:  -0.44870 cv_72 + 1.00000 cv_223 <= -0.00000
R_4_73_low: -0.44870 cv_72 + 1.00000 cv_223 >= -0.00000
R_4_74:  -0.45181 cv_73 + 1.00000 cv_224 <= -0.00000
R_4_74_low: -0.45181 cv_73 + 1.00000 cv_224 >= -0.00000
R_4_75:  -0.45489 cv_74 + 1.00000 cv_225 <= -0.00000
R_4_75_low: -0.45489 cv_74 + 1.00000 cv_225 >= -0.00000
R_4_76:  -0.45795 cv_75 + 1.00000 cv_226 <= -0.00000
R_4_76_low: -0.45795 cv_75 + 1.00000 cv_226 >= -0.00000
R_4_77:  -0.46100 cv_76 + 1.00000 cv_227 <= -0.00000
R_4_77_low: -0.46100 cv_76 + 1.00000 cv_227 >= -0.00000
R_4_78:  -0.46402 cv_77 + 1.00000 cv_228 <= -0.00000
R_4_78_low: -0.46402 cv_77 + 1.00000 cv_228 >= -0.00000
R_4_79:  -0.46702 cv_78 + 1.00000 cv_229 <= -0.00000
R_4_79_low: -0.46702 cv_78 + 1.00000 cv_229 >= -0.00000
R_4_80:  -0.47001 cv_79 + 1.00000 cv_230 <= -0.00000
R_4_80_low: -0.47001 cv_79 + 1.00000 cv_230 >= -0.00000
R_4_81:  -0.47297 cv_80 + 1.00000 cv_231 <= -0.00000
R_4_81_low: -0.47297 cv_80 + 1.00000 cv_231 >= -0.00000
R_4_82:  -0.47592 cv_81 + 1.00000 cv_232 <= -0.00000
R_4_82_low: -0.47592 cv_81 + 1.00000 cv_232 >= -0.00000
R_4_83:  -0.47885 cv_82 + 1.00000 cv_233 <= -0.00000
R_4_83_low: -0.47885 cv_82 + 1.00000 cv_233 >= -0.00000
R_4_84:  -0.48176 cv_83 + 1.00000 cv_234 <= -0.00000
R_4_84_low: -0.48176 cv_83 + 1.00000 cv_234 >= -0.00000
R_4_85:  -0.48465 cv_84 + 1.00000 cv_235 <= -0.00000
R_4_85_low: -0.48465 cv_84 + 1.00000 cv_235 >= -0.00000
R_4_86:  -0.48753 cv_85 + 1.00000 cv_236 <= -0.00000
R_4_86_low: -0.48753 cv_85 + 1.00000 cv_236 >= -0.00000
R_4_87:  -0.49039 cv_86 + 1.00000 cv_237 <= -0.00000
R_4_87_low: -0.49039 cv_86 + 1.00000 cv_237 >= -0.00000
R_4_88:  -0.49323 cv_87 + 1.00000 cv_238 <= -0.00000
R_4_88_low: -0.49323 cv_87 + 1.00000 cv_238 >= -0.00000
R_4_89:  -0.49606 cv_88 + 1.00000 cv_239 <= -0.00000
R_4_89_low: -0.49606 cv_88 + 1.00000 cv_239 >= -0.00000
R_4_90:  -0.49887 cv_89 + 1.00000 cv_240 <= -0.00000
R_4_90_low: -0.49887 cv_89 + 1.00000 cv_240 >= -0.00000
R_4_91:  -0.50166 cv_90 + 1.00000 cv_241 <= -0.00000
R_4_91_low: -0.50166 cv_90 + 1.00000 cv_241 >= -0.00000
R_4_92:  -0.50444 cv_91 + 1.00000 cv_242 <= -0.00000
R_4_92_low: -0.50444 cv_91 + 1.00000 cv_242 >= -0.00000
R_4_93:  -0.50721 cv_92 + 1.00000 cv_243 <= -0.00000
R_4_93_low: -0.50721 cv_92 + 1.00000 cv_243 >= -0.00000
R_4_94:  -0.50996 cv_93 + 1.00000 cv_244 <= -0.00000
R_4_94_low: -0.50996 cv_93 + 1.00000 cv_244 >= -0.00000
R_4_95:  -0.51269 cv_94 + 1.00000 cv_245 <= -0.00000
R_4_95_low: -0.51269 cv_94 + 1.00000 cv_245 >= -0.00000
R_4_96:  -0.51541 cv_95 + 1.00000 cv_246 <= -0.00000
R_4_96_low: -0.51541 cv_95 + 1.00000 cv_246 >= -0.00000
R_4_97:  -0.51812 cv_96 + 1.00000 cv_247 <= -0.00000
R_4_97_low: -0.51812 cv_96 + 1.00000 cv_247 >= -0.00000
R_4_98:  -0.52081 cv_97 + 1.00000 cv_248 <= -0.00000
R_4_98_low: -0.52081 cv_97 + 1.00000 cv_248 >= -0.00000
R_4_99:  -0.52349 cv_98 + 1.00000 cv_249 <= -0.00000
R_4_99_low: -0.52349 cv_98 + 1.00000 cv_249 >= -0.00000
R_4_100:  -0.52615 cv_99 + 1.00000 cv_250 <= -0.00000
R_4_100_low: -0.52615 cv_99 + 1.00000 cv_250 >= -0.00000
R_4_101:  -0.52880 cv_100 + 1.00000 cv_251 <= -0.00000
R_4_101_low: -0.52880 cv_100 + 1.00000 cv_251 >= -0.00000
R_4_102:  -0.53144 cv_101 + 1.00000 cv_252 <= -0.00000
R_4_102_low: -0.53144 cv_101 + 1.00000 cv_252 >= -0.00000
R_4_103:  -0.53406 cv_102 + 1.00000 cv_253 <= -0.00000
R_4_103_low: -0.53406 cv_102 + 1.00000 cv_253 >= -0.00000
R_4_104:  -0.53667 cv_103 + 1.00000 cv_254 <= -0.00000
R_4_104_low: -0.53667 cv_103 + 1.00000 cv_254 >= -0.00000
R_4_105:  -0.53927 cv_104 + 1.00000 cv_255 <= -0.00000
R_4_105_low: -0.53927 cv_104 + 1.00000 cv_255 >= -0.00000
R_4_106:  -0.54186 cv_105 + 1.00000 cv_256 <= -0.00000
R_4_106_low: -0.54186 cv_105 + 1.00000 cv_256 >= -0.00000
R_4_107:  -0.54443 cv_106 + 1.00000 cv_257 <= -0.00000
R_4_107_low: -0.54443 cv_106 + 1.00000 cv_257 >= -0.00000
R_4_108:  -0.54700 cv_107 + 1.00000 cv_258 <= -0.00000
R_4_108_low: -0.54700 cv_107 + 1.00000 cv_258 >= -0.00000
R_4_109:  -0.54955 cv_108 + 1.00000 cv_259 <= -0.00000
R_4_109_low: -0.54955 cv_108 + 1.00000 cv_259 >= -0.00000
R_4_110:  -0.55208 cv_109 + 1.00000 cv_260 <= -0.00000
R_4_110_low: -0.55208 cv_109 + 1.00000 cv_260 >= -0.00000
R_4_111:  -0.55461 cv_110 + 1.00000 cv_261 <= -0.00000
R_4_111_low: -0.55461 cv_110 + 1.00000 cv_261 >= -0.00000
R_4_112:  -0.55713 cv_111 + 1.00000 cv_262 <= -0.00000
R_4_112_low: -0.55713 cv_111 + 1.00000 cv_262 >= -0.00000
R_4_113:  -0.55963 cv_112 + 1.00000 cv_263 <= -0.00000
R_4_113_low: -0.55963 cv_112 + 1.00000 cv_263 >= -0.00000
R_4_114:  -0.56212 cv_113 + 1.00000 cv_264 <= -0.00000
R_4_114_low: -0.56212 cv_113 + 1.00000 cv_264 >= -0.00000
R_4_115:  -0.56460 cv_114 + 1.00000 cv_265 <= -0.00000
R_4_115_low: -0.56460 cv_114 + 1.00000 cv_265 >= -0.00000
R_4_116:  -0.56708 cv_115 + 1.00000 cv_266 <= -0.00000
R_4_116_low: -0.56708 cv_115 + 1.00000 cv_266 >= -0.00000
R_4_117:  -0.56954 cv_116 + 1.00000 cv_267 <= -0.00000
R_4_117_low: -0.56954 cv_116 + 1.00000 cv_267 >= -0.00000
R_4_118:  -0.57198 cv_117 + 1.00000 cv_268 <= -0.00000
R_4_118_low: -0.57198 cv_117 + 1.00000 cv_268 >= -0.00000
R_4_119:  -0.57442 cv_118 + 1.00000 cv_269 <= -0.00000
R_4_119_low: -0.57442 cv_118 + 1.00000 cv_269 >= -0.00000
R_4_120:  -0.57685 cv_119 + 1.00000 cv_270 <= -0.00000
R_4_120_low: -0.57685 cv_119 + 1.00000 cv_270 >= -0.00000
R_4_121:  -0.57927 cv_120 + 1.00000 cv_271 <= -0.00000
R_4_121_low: -0.57927 cv_120 + 1.00000 cv_271 >= -0.00000
R_4_122:  -0.58168 cv_121 + 1.00000 cv_272 <= -0.00000
R_4_122_low: -0.58168 cv_121 + 1.00000 cv_272 >= -0.00000
R_4_123:  -0.58408 cv_122 + 1.00000 cv_273 <= -0.00000
R_4_123_low: -0.58408 cv_122 + 1.00000 cv_273 >= -0.00000
R_4_124:  -0.58647 cv_123 + 1.00000 cv_274 <= -0.00000
R_4_124_low: -0.58647 cv_123 + 1.00000 cv_274 >= -0.00000
R_4_125:  -0.58885 cv_124 + 1.00000 cv_275 <= -0.00000
R_4_125_low: -0.58885 cv_124 + 1.00000 cv_275 >= -0.00000
R_4_126:  -0.59122 cv_125 + 1.00000 cv_276 <= -0.00000
R_4_126_low: -0.59122 cv_125 + 1.00000 cv_276 >= -0.00000
R_4_127:  -0.59358 cv_126 + 1.00000 cv_277 <= -0.00000
R_4_127_low: -0.59358 cv_126 + 1.00000 cv_277 >= -0.00000
R_4_128:  -0.59593 cv_127 + 1.00000 cv_278 <= -0.00000
R_4_128_low: -0.59593 cv_127 + 1.00000 cv_278 >= -0.00000
R_4_129:  -0.59827 cv_128 + 1.00000 cv_279 <= -0.00000
R_4_129_low: -0.59827 cv_128 + 1.00000 cv_279 >= -0.00000
R_4_130:  -0.60060 cv_129 + 1.00000 cv_280 <= -0.00000
R_4_130_low: -0.60060 cv_129 + 1.00000 cv_280 >= -0.00000
R_4_131:  -0.60292 cv_130 + 1.00000 cv_281 <= -0.00000
R_4_131_low: -0.60292 cv_130 + 1.00000 cv_281 >= -0.00000
R_4_132:  -0.60524 cv_131 + 1.00000 cv_282 <= -0.00000
R_4_132_low: -0.60524 cv_131 + 1.00000 cv_282 >= -0.00000
R_4_133:  -0.60755 cv_132 + 1.00000 cv_283 <= -0.00000
R_4_133_low: -0.60755 cv_132 + 1.00000 cv_283 >= -0.00000
R_4_134:  -0.60984 cv_133 + 1.00000 cv_284 <= -0.00000
R_4_134_low: -0.60984 cv_133 + 1.00000 cv_284 >= -0.00000
R_4_135:  -0.61213 cv_134 + 1.00000 cv_285 <= -0.00000
R_4_135_low: -0.61213 cv_134 + 1.00000 cv_285 >= -0.00000
R_4_136:  -0.61441 cv_135 + 1.00000 cv_286 <= -0.00000
R_4_136_low: -0.61441 cv_135 + 1.00000 cv_286 >= -0.00000
R_4_137:  -0.61668 cv_136 + 1.00000 cv_287 <= -0.00000
R_4_137_low: -0.61668 cv_136 + 1.00000 cv_287 >= -0.00000
R_4_138:  -0.61894 cv_137 + 1.00000 cv_288 <= -0.00000
R_4_138_low: -0.61894 cv_137 + 1.00000 cv_288 >= -0.00000
R_4_139:  -0.62120 cv_138 + 1.00000 cv_289 <= -0.00000
R_4_139_low: -0.62120 cv_138 + 1.00000 cv_289 >= -0.00000
R_4_140:  -0.62345 cv_139 + 1.00000 cv_290 <= -0.00000
R_4_140_low: -0.62345 cv_139 + 1.00000 cv_290 >= -0.00000
R_4_141:  -0.62568 cv_140 + 1.00000 cv_291 <= -0.00000
R_4_141_low: -0.62568 cv_140 + 1.00000 cv_291 >= -0.00000
R_4_142:  -0.62792 cv_141 + 1.00000 cv_292 <= -0.00000
R_4_142_low: -0.62792 cv_141 + 1.00000 cv_292 >= -0.00000
R_4_143:  -0.63014 cv_142 + 1.00000 cv_293 <= -0.00000
R_4_143_low: -0.63014 cv_142 + 1.00000 cv_293 >= -0.00000
R_4_144:  -0.63235 cv_143 + 1.00000 cv_294 <= -0.00000
R_4_144_low: -0.63235 cv_143 + 1.00000 cv_294 >= -0.00000
R_4_145:  -0.63456 cv_144 + 1.00000 cv_295 <= -0.00000
R_4_145_low: -0.63456 cv_144 + 1.00000 cv_295 >= -0.00000
R_4_146:  -0.63676 cv_145 + 1.00000 cv_296 <= -0.00000
R_4_146_low: -0.63676 cv_145 + 1.00000 cv_296 >= -0.00000
R_4_147:  -0.63895 cv_146 + 1.00000 cv_297 <= -0.00000
R_4_147_low: -0.63895 cv_146 + 1.00000 cv_297 >= -0.00000
R_4_148:  -0.64114 cv_147 + 1.00000 cv_298 <= -0.00000
R_4_148_low: -0.64114 cv_147 + 1.00000 cv_298 >= -0.00000
R_4_149:  -0.64331 cv_148 + 1.00000 cv_299 <= -0.00000
R_4_149_low: -0.64331 cv_148 + 1.00000 cv_299 >= -0.00000
R_4_150:  -0.64548 cv_149 + 1.00000 cv_300 <= -0.00000
R_4_150_low: -0.64548 cv_149 + 1.00000 cv_300 >= -0.00000
R_4_151:  -0.64765 cv_150 + 1.00000 cv_301 <= -0.00000
R_4_151_low: -0.64765 cv_150 + 1.00000 cv_301 >= -0.00000
R_4_152:  1.00000 cv_302 -0.50000 cv_303 <= 0.50000
R_4_152_low: 1.00000 cv_302 -0.50000 cv_303 >= 0.50000
R_5_0:  -1.00000 cv_0 -1.15033 cv_1 -1.15067 cv_2 -1.15100 cv_3 -1.15133 cv_4 -1.15167 cv_5 -1.15200 cv_6 -1.15233 cv_7 -1.15267 cv_8 -1.15300 cv_9
 -1.15333 cv_10 -1.15367 cv_11 -1.15400 cv_12 -1.15433 cv_13 -1.15467 cv_14 -1.15500 cv_15 -1.15533 cv_16 -1.15567 cv_17 -1.15600 cv_18 -1.15633 cv_19
 -1.15667 cv_20 -1.15700 cv_21 -1.15733 cv_22 -1.15767 cv_23 -1.15800 cv_24 -1.15833 cv_25 -1.15867 cv_26 -1.15900 cv_27 -1.15933 cv_28 -1.15967 cv_29
 -1.16000 cv_30 -1.16033 cv_31 -1.16067 cv_32 -1.16100 cv_33 -1.16133 cv_34 -1.16167 cv_35 -1.16200 cv_36 -1.16233 cv_37 -1.16267 cv_38 -1.16300 cv_39
 -1.16333 cv_40 -1.16367 cv_41 -1.16400 cv_42 -1.16433 cv_43 -1.16467 cv_44 -1.16500 cv_45 -1.16533 cv_46 -1.16567 cv_47 -1.16600 cv_48 -1.16633 cv_49
 -1.16667 cv_50 -1.16700 cv_51 -1.16733 cv_52 -1.16767 cv_53 -1.16800 cv_54 -1.16833 cv_55 -1.16867 cv_56 -1.16900 cv_57 -1.16933 cv_58 -1.16967 cv_59
 -1.17000 cv_60 -1.17033 cv_61 -1.17067 cv_62 -1.17100 cv_63 -1.17133 cv_64 -1.17167 cv_65 -1.17200 cv_66 -1.17233 cv_67 -1.17267 cv_68 -1.17300 cv_69
 -1.17333 cv_70 -1.17367 cv_71 -1.17400 cv_72 -1.17433 cv_73 -1.17467 cv_74 -1.17500 cv_75 -1.17533 cv_76 -1.17567 cv_77 -1.17600 cv_78 -1.17633 cv_79
 -1.17667 cv_80 -1.17700 cv_81 -1.17733 cv_82 -1.17767 cv_83 -1.17800 cv_84 -1.17833 cv_85 -1.17867 cv_86 -1.17900 cv_87 -1.17933 cv_88 -1.17967 cv_89
 -1.18000 cv_90 -1.18033 cv_91 -1.18067 cv_92 -1.18100 cv_93 -1.18133 cv_94 -1.18167 cv_95 -1.18200 cv_96 -1.18233 cv_97 -1.18267 cv_98 -1.18300 cv_99
 -1.18333 cv_100 -1.18367 cv_101 -1.18400 cv_102 -1.18433 cv_103 -1.18467 cv_104 -1.18500 cv_105 -1.18533 cv_106 -1.18567 cv_107 -1.18600 cv_108 -1.18633 cv_109
 -1.18667 cv_110 -1.18700 cv_111 -1.18733 cv_112 -1.18767 cv_113 -1.18800 cv_114 -1.18833 cv_115 -1.18867 cv_116 -1.18900 cv_117 -1.18933 cv_118 -1.18967 cv_119
 -1.19000 cv_120 -1.19033 cv_121 -1.19067 cv_122 -1.19100 cv_123 -1.19133 cv_124 -1.19167 cv_125 -1.19200 cv_126 -1.19233 cv_127 -1.19267 cv_128 -1.19300 cv_129
 -1.19333 cv_130 -1.19367 cv_131 -1.19400 cv_132 -1.19433 cv_133 -1.19467 cv_134 -1.19500 cv_135 -1.19533 cv_136 -1.19567 cv_137 -1.19600 cv_138 -1.19633 cv_139
 -1.19667 cv_140 -1.19700 cv_141 -1.19733 cv_142 -1.19767 cv_143 -1.19800 cv_144 -1.19833 cv_145 -1.19867 cv_146 -1.19900 cv_147 -1.19933 cv_148 -1.19967 cv_149
 -1.20000 cv_150 + 1.00000 cv_303 <= -0.00000
Bounds
 cv_0 Free
 cv_151 Free
 cv_152 Free
 cv_153 Free
 cv_154 Free
 cv_155 Free
 cv_156 Free
 cv_157 Free
 cv_158 Free
 cv_159 Free
 cv_160 Free
 cv_161 Free
 cv_162 Free
 cv_163 Free
 cv_164 Free
 cv_165 Free
 cv_166 Free
 cv_167 Free
 cv_168 Free
 cv_169 Free
 cv_170 Free
 cv_171 Free
 cv_172 Free
 cv_173 Free
 cv_174 Free
 cv_175 Free
 cv_176 Free
 cv_177 Free
 cv_178 Free
 cv_179 Free
 cv_180 Free
 cv_181 Free
 cv_182 Free
 cv_183 Free
 cv_184 Free
 cv_185 Free
 cv_186 Free
 cv_187 Free
 cv_188 Free
 cv_189 Free
 cv_190 Free
 cv_191 Free
 cv_192 Free
 cv_193 Free
 cv_194 Free
 cv_195 Free
 cv_196 Free
 cv_197 Free
 cv_198 Free
 cv_199 Free
 cv_200 Free
 cv_201 Free
 cv_202 Free
 cv_203 Free
 cv_204 Free
 cv_205 Free
 cv_206 Free
 cv_207 Free
 cv_208 Free
 cv_209 Free
 cv_210 Free
 cv_211 Free
 cv_212 Free
 cv_213 Free
 cv_214 Free
 cv_215 Free
 cv_216 Free
 cv_217 Free
 cv_218 Free
 cv_219 Free
 cv_220 Free
 cv_221 Free
 cv_222 Free
 cv_223 Free
 cv_224 Free
 cv_225 Free
 cv_226 Free
 cv_227 Free
 cv_228 Free
 cv_229 Free
 cv_230 Free
 cv_231 Free
 cv_232 Free
 cv_233 Free
 cv_234 Free
 cv_235 Free
 cv_236 Free
 cv_237 Free
 cv_238 Free
 cv_239 Free
 cv_240 Free
 cv_241 Free
 cv_242 Free
 cv_243 Free
 cv_244 Free
 cv_245 Free
 cv_246 Free
 cv_247 Free
 cv_248 Free
 cv_249 Free
 cv_250 Free
 cv_251 Free
 cv_252 Free
 cv_253 Free
 cv_254 Free
 cv_255 Free
 cv_256 Free
 cv_257 Free
 cv_258 Free
 cv_259 Free
 cv_260 Free
 cv_261 Free
 cv_262 Free
 cv_263 Free
 cv_264 Free
 cv_265 Free
 cv_266 Free
 cv_267 Free
 cv_268 Free
 cv_269 Free
 cv_270 Free
 cv_271 Free
 cv_272 Free
 cv_273 Free
 cv_274 Free
 cv_275 Free
 cv_276 Free
 cv_277 Free
 cv_278 Free
 cv_279 Free
 cv_280 Free
 cv_281 Free
 cv_282 Free
 cv_283 Free
 cv_284 Free
 cv_285 Free
 cv_286 Free
 cv_287 Free
 cv_288 Free
 cv_289 Free
 cv_290 Free
 cv_291 Free
 cv_292 Free
 cv_293 Free
 cv_294 Free
 cv_295 Free
 cv_296 Free
 cv_297 Free
 cv_298 Free
 cv_299 Free
 cv_300 Free
 cv_301 Free
 cv_303 Free
End
